SPARKNaCl/why3-z3/sparknacl-core.adb_66_27_division_check_1.smt2
;; produced by z3_gnatprove.drv ;;
(set-info :smt-lib-version 2.5)
(set-info :source |VC generated by SPARK 2014|)
(set-info :category industrial)
(set-info :status unknown)
;;; generated by SMT-LIB2 driver
;;; SMT-LIB2 driver: bit-vectors, common part
;;; SMT-LIB2: integer arithmetic
(declare-datatypes ()
  ((int__ref (int__refqtmk (int__content Int)))))

(declare-datatypes ()
  ((t__ref (t__refqtmk (t__content (_ BitVec 64))))))

(declare-sort byte 0)

;; "to_rep"
(declare-fun to_rep (byte) (_ BitVec 8))

;; "of_rep"
(declare-fun of_rep ((_ BitVec 8)) byte)

;; "inversion_axiom"
(assert
  (forall ((x byte)) (! (= (of_rep (to_rep x)) x) :pattern ((to_rep x)) )))

;; "range_axiom"
(assert true)

;; "coerce_axiom"
(assert
  (forall ((x (_ BitVec 8)))
    (! (= (to_rep (of_rep x)) x) :pattern ((to_rep (of_rep x))) )))

(declare-sort map1 0)

(declare-datatypes ()
  ((map__ref (map__refqtmk (map__content map1)))))

;; "has_bounds"
(declare-fun has_bounds (map1
  Int
  Int) Bool)

;; "get"
(declare-fun get (map1
  Int) byte)

(declare-const u (_ BitVec 64))

(declare-const x map1)

;; "x'unused"
(define-fun xqtunused () map__ref
  (map__refqtmk x))

;; "Assume"
(assert (has_bounds x 0 7))

;; "Assume"
(assert true)

(declare-const t (_ BitVec 64))

;; "t'unused"
(define-fun tqtunused () t__ref
  (t__refqtmk t))

;; "H"
(assert (= t u))

;; "Assume"
(assert true)

(declare-const i Int)

;; "i'unused"
(define-fun iqtunused () int__ref
  (int__refqtmk i))

;; "H"
(assert (= i 0))

;; "int__content'result'unused"
(define-fun int__contentqtresultqtunused () Int
  i)

;; "o"
(define-fun o () Bool
  (ite (<= i 7) true false))

;; "infix <='result'unused"
(define-fun infix_lseqqtresultqtunused () Bool
  o)

;; "int__content'result'unused"
(define-fun int__contentqtresultqtunused1 () Int
  i)

;; "o"
(define-fun o1 () Bool
  (ite (<= 0 i) true false))

;; "infix <='result'unused"
(define-fun infix_lseqqtresultqtunused1 () Bool
  o1)

;; "o"
(define-fun o2 () Bool
  (and o1 o))

;; "andb'result'unused"
(define-fun andbqtresultqtunused () Bool
  o2)

;; "H"
(assert (= o2 true))

;; "temp___loop_entry_1689'unused"
(define-fun temp___loop_entry_1689qtunused () map1
  x)

;; "map__content'result'unused"
(define-fun map__contentqtresultqtunused () map1
  x)

;; "temp___loop_entry_1687'unused"
(define-fun temp___loop_entry_1687qtunused () (_ BitVec 64)
  t)

;; "t__content'result'unused"
(define-fun t__contentqtresultqtunused () (_ BitVec 64)
  t)

(declare-const x1 map1)

(declare-const t1 (_ BitVec 64))

(declare-const i1 Int)

;; "i'unused"
(define-fun iqtunused1 () int__ref
  (int__refqtmk i1))

;; "t'unused"
(define-fun tqtunused1 () t__ref
  (t__refqtmk t1))

;; "x'unused"
(define-fun xqtunused1 () map__ref
  (map__refqtmk x1))

;; "Assume"
(assert
  (= (and (ite (and
                 (has_bounds x1 0 7)
                 (forall ((temp___1690 Int))
                   (=>
                     (and (<= 0 temp___1690) (<= temp___1690 7))
                     (=>
                       (or
                         (< 7 temp___1690)
                         (or (< temp___1690 0) (<= i1 temp___1690)))
                       (= (get x1 temp___1690) (get x temp___1690))))))
            true
            false) (ite (and (<= 0 i1) (<= i1 7)) true false)) true))

;; "t__content'result'unused"
(define-fun t__contentqtresultqtunused1 () (_ BitVec 64)
  t1)

;; Goal "def'vc"
;; File "sparknacl-core.adb", line 30, characters 0-0
(assert
  (not (not (= #x0000000000000100 #x0000000000000000))))

(check-sat)
